10 20
58 31 72 61 12 42 71 20 41 26 
95 9 3 3 77 8 71 70 15 56 
44 8 18 75 93 81 9 81 22 50 
63 16 72 44 88 71 91 78 19 79 
98 91 65 32 74 33 61 60 51 36 
73 31 52 94 75 24 69 58 10 40 
30 99 73 81 88 42 11 69 57 4 
22 75 97 26 47 81 79 74 67 31 
75 9 22 35 37 62 14 73 51 91 
89 98 14 50 12 12 95 94 27 10 
91 95 69 59 98 4 11 10 41 78 
66 78 52 11 61 59 65 61 27 97 
96 22 6 74 66 7 35 23 6 22 
25 67 33 68 64 76 39 16 47 83 
11 57 12 25 54 35 55 6 7 59 
24 31 94 65 81 4 39 61 35 18 
61 32 7 16 99 18 24 88 99 78 
20 55 75 94 27 42 42 17 55 46 
95 8 25 59 1 4 61 66 91 47 
82 48 29 20 48 84 76 24 53 53 
